100 200
10 1
13 2
13 5
13 6
6 4
9 2
6 2
8 2
9 2
9 3
10 3
6 4
12 1
5 4
12 3
7 4
14 2
11 4
6 1
5 6
10 2
10 6
9 4
9 3
12 2
9 2
7 5
11 4
2 1
3 6
9 3
12 3
12 2
9 1
10 5
14 4
11 6
8 2
3 2
9 5
8 2
2 2
14 4
8 1
10 1
14 1
3 4
3 1
11 4
5 7
4 4
2 7
9 3
1 3
2 3
14 2
7 3
13 7
14 2
5 6
13 4
10 5
6 4
9 4
11 6
5 4
12 1
1 5
7 3
5 1
8 2
9 1
7 7
7 3
7 3
9 5
1 6
3 1
7 4
2 4
5 4
5 6
4 3
7 4
2 1
6 5
6 5
7 1
12 1
14 1
13 2
4 6
6 1
11 1
9 4
3 5
4 5
7 6
12 4
1 2
